c --- [ banner ] -------------------------------------------------------------
c 
c CaDiCaL SAT Solver
c Copyright (c) 2016-2023 A. Biere, M. Fleury, N. Froleyks, K. Fazekas, F. Pollitt
c 
c Version 1.9.5
c g++ (Ubuntu 11.4.0-1ubuntu1~22.04) 11.4.0 -Wall -Wextra -O3 -DNDEBUG -static
c Thu Mar 7 06:16:21 CET 2024 Linux pc101447 6.5.0-17-generic x86_64
c 
c --- [ limit ] --------------------------------------------------------------
c 
c setting time limit to 3600 seconds real time (due to '-t 3600')
c 
c --- [ parsing input ] ------------------------------------------------------
c 
c reading DIMACS file from '/home/oliveras/SAT-comp-2023//bc7dc7a83b442a2bf4cf8cae3f0e0faa-hash_table_find_safety_size_18.cnf'
c opening file to read '/home/oliveras/SAT-comp-2023//bc7dc7a83b442a2bf4cf8cae3f0e0faa-hash_table_find_safety_size_18.cnf'
c found 'p cnf 9954175 45743446' header
c parsed 45743446 clauses in 19.97 seconds process time
c 
c --- [ options ] ------------------------------------------------------------
c 
c   --seed=1                       (different from default '0')
c 
c --- [ solving ] ------------------------------------------------------------
c 
c time measured in process time since initialization
c 
c  seconds    reductions  redundant   irredundant
c          MB     restarts       trail          variables
c            level   conflicts       glue             remaining
c 
c * 19.97 5545  0 0   0    0    0  0% 0 39879160 8987452 90%
c { 20.33 5578  0 0   0    0    0  0% 0 39879160 8987452 90%
c } 20.50 5585 562 0   0 1499    5 11% 191 39879160 8987452 90%
c [ 20.50 5585  0 0   0 1499    5  0% 0 39879160 8987452 90%
c - 24.44 5602  0 1   0 1499    5  0% 0 39450842 8987452 90%
c O 24.47 5602  0 1   0 1500    5 10% 0 39450842 8987452 90%
c i 24.47 5602  0 1   0 1500    5 10% 0 39450842 8987434 90%
c i 24.48 5602  0 1   0 1501    5 10% 0 39450842 8987369 90%
c i 24.50 5602  0 1   0 1502    5 10% 0 39450842 8987368 90%
c i 24.51 5602  0 1   0 1503    5 10% 0 39450842 8943574 90%
c i 24.55 5602  0 1   0 1504    5 10% 0 39450842 8943570 90%
c i 24.58 5602  0 1   0 1505    5 10% 0 39450842 8943474 90%
c i 27.10 5650 59 1   0 1513   10 32% 5 39450842 8943455 90%
c i 27.15 5650 48 1   0 1516   12 29% 4 39450842 8896364 89%
c i 27.15 5650 40 1   0 1520   15 25% 4 39450842 8896302 89%
c i 27.15 5650 35 1   0 1524   18 23% 4 39450842 8895728 89%
c i 27.16 5650 33 1   0 1526   19 22% 4 39450842 8895665 89%
c i 27.39 5652 22 1   0 1543   23 18% 3 39450842 8893314 89%
c i 64.83 7082 556 1   1 3080  955 57% 34 37205342 8893245 89%
c i 64.94 7082 565 1   1 3198 1053 18% 31 37205342 8893239 89%
c 
c  seconds     reductions  redundant    irredundant
c          MB      restarts       trail           variables
c             level   conflicts       glue              remaining
c 
c i 64.95 7082 565 1   1 3203 1057 17% 31 37205342 8893236 89%
c i 64.96 7082 566 1   1 3227 1072 15% 31 37205342 8892937 89%
c i 64.97 7082 567 1   1 3236 1075 15% 31 37205342 8892691 89%
c i 80.76 7082 569 1   1 3318 1125 19% 32 37205342 8892687 89%
c i 86.06 7082 569 1   1 3344 1137 21% 33 37205342 8892684 89%
c i 98.69 7082 568 1   1 3405 1162 24% 34 37205342 8892679 89%
c i 111.13 7082 566 1   1 3466 1187 26% 36 37205342 8892674 89%
c ] 117.79 7082 565 1   1 3500 1200 27% 36 37205342 8892674 89%
c { 117.79 7082 562 1   1 3500 1200 12% 191 37205342 8892674 89%
c F 117.92 7082 506 1   1 3501 1201 12% 172 37205342 8892670 89%
c i 117.93 7082 389 1   1 3504 1202 12% 143 37205342 8892093 89%
c i 117.93 7082 362 1   1 3505 1202 12% 132 37205342 8892090 89%
c i 118.64 7082 338 1   1 3506 1202 12% 123 37205342 8892087 89%
c i 118.76 7082 288 1   1 3509 1204 12% 101 37205342 8892085 89%
c i 118.79 7082 276 1   1 3510 1204 12% 96 37205342 8892083 89%
c i 118.82 7082 265 1   1 3511 1204 12% 91 37205342 8892081 89%
c i 118.85 7082 255 1   1 3512 1204 12% 86 37205342 8892079 89%
c i 118.89 7082 246 1   1 3513 1204 12% 82 37205342 8892077 89%
c i 118.91 7082 238 1   1 3514 1204 12% 78 37205342 8892075 89%
c - 130.03 7081 398 2   1 3657 1261 15% 19 37200145 8892075 89%
c 
c  seconds      reductions  redundant   irredundant
c           MB      restarts       trail          variables
c              level   conflicts       glue             remaining
c 
c s 169.94 6572 543 2   1 4300 1570 26% 7 37193413 8892075 89%
c v 228.25 6979 543 2   1 4300 1570 26% 7 37193142 8892075 89%
c w 239.95 6979 543 2   1 4300 1569 26% 7 37193142 8892074 89%
c t 243.16 6979 543 2   1 4300 1569 26% 7 37193128 8892073 89%
c e 332.08 6415 543 2   1 4300   77 26% 7 5117994 583177  6%
c s 334.75 6415 543 2   1 4300   76 26% 7 5117985 583177  6%
c e 339.26 6402 543 2   1 4300   75 26% 7 5117977 583175  6%
c i 342.98 6778 85826 2   1 4433  101 25% 7 5117977 235536  2%
c i 343.38 6778 65723 2   4 4645  233 23% 7 5117974 235510  2%
c i 343.39 6778 65568 2   4 4647  234 23% 7 5117974 235509  2%
c i 343.39 6778 65491 2   4 4648  234 23% 7 5117974 235508  2%
c i 344.73 6778 369234 2   4 4727  276 24% 7 5117974 235503  2%
c i 344.74 6778 368010 2   5 4730  277 24% 7 5117974 235457  2%
c i 344.79 6778 354297 2   9 4817  293 24% 7 5117974 235422  2%
c i 344.87 6778 340526 2  15 4855  325 23% 7 5117974 235414  2%
c i 344.87 6778 337767 2  15 4863  330 23% 9 5117974 235411  2%
c i 344.87 6778 334382 2  18 4873  338 23% 10 5117974 235409  2%
c i 344.88 6778 329428 2  19 4888  350 23% 11 5117974 235407  2%
c i 344.88 6778 325569 2  21 4900  359 23% 13 5117974 235405  2%
c i 344.88 6778 323673 2  22 4906  362 23% 14 5117974 235404  2%
c 
c  seconds         reductions  redundant    irredundant
c           MB         restarts       trail         variables
c               level     conflicts       glue            remaining
c 
c i 344.88 6778 322734 2  23 4909  364 23% 14 5117974 235402  2%
c i 344.88 6778 319631 2  24 4933  369 23% 14 5117974 235351  2%
c i 344.88 6778 316897 2  25 4942  375 23% 15 5117974 235349  2%
c i 344.88 6778 315398 2  27 4947  378 23% 15 5117974 235347  2%
c i 344.88 6778 312735 2  28 4956  382 23% 21 5117974 235346  2%
c i 344.88 6778 311275 2  30 4961  385 23% 20 5117974 235344  2%
c i 344.89 6778 306975 2  33 4976  394 22% 25 5117974 235342  2%
c i 344.89 6778 304174 2  34 4986  398 22% 30 5117974 235341  2%
c i 344.89 6778 303344 2  35 4989  400 22% 30 5117974 235340  2%
c i 344.91 6778 291628 2  37 5067  414 22% 30 5117974 235314  2%
c d 346.49 6778 291628 2  38 5067  401 22% 30 2996687 230312  2%
c d 347.50 6783 291628 2  38 5067  401 22% 30 2852489 158213  2%
c 3 348.45 6376 291628 2  38 5067 130682 22% 30 2852489 158213  2%
c 2 350.35 6783 291628 2  38 5067 130682 22% 30 2716776 158019  2%
c p 353.52 6783 291628 2  38 5067 1009412 22% 30 2716776 146547  1%
c d 354.59 6919 291628 2  38 5067 247021 22% 30 2376824 146389  1%
c d 355.74 6919 291628 2  38 5067 245661 22% 30 2337772 136261  1%
c i 355.75 6783 291116 2  38 5069 245662 22% 30 2337772 136259  1%
c i 355.79 6783 287587 2  40 5084 245669 22% 30 2337771 136258  1%
c i 355.79 6783 286595 2  41 5088 245668 22% 31 2337771 136257  1%
c 
c  seconds         reductions   redundant     irredundant
c           MB         restarts         trail         variables
c               level     conflicts         glue            remaining
c 
c i 355.83 6783 267005 2  48 5174 245703 21% 32 2337771 136242  1%
c i 355.83 6783 265512 2  50 5181 245709 21% 32 2337771 136241  1%
c i 355.85 6783 265300 2  50 5182 245709 21% 31 2337771 136240  1%
c i 355.85 6783 265088 2  50 5183 245709 21% 31 2337771 136239  1%
c i 355.85 6783 261535 2  52 5201 245719 21% 31 2337771 136238  1%
c i 355.85 6783 261329 2  53 5202 245719 21% 31 2337771 136237  1%
c i 355.86 6783 257874 2  55 5219 245723 21% 31 2337771 136236  1%
c i 355.86 6783 256280 2  56 5227 245724 21% 31 2337771 136235  1%
c i 355.86 6783 256082 2  56 5228 245724 21% 31 2337771 136234  1%
c i 355.99 6783 249528 2  56 5270 245732 21% 30 2337771 136232  1%
c i 355.99 6783 249153 2  56 5272 245733 21% 30 2337771 136230  1%
c i 355.99 6783 248779 2  56 5274 245734 21% 30 2337771 136229  1%
c i 355.99 6783 248592 2  56 5275 245734 21% 30 2337771 136228  1%
c i 355.99 6783 248406 2  56 5276 245734 21% 30 2337771 136227  1%
c i 355.99 6783 248220 2  56 5277 245734 21% 30 2337771 136224  1%
c i 356.04 6783 218422 2  56 5506 245839 20% 27 2337771 136221  1%
c i 356.09 6783 213642 2  56 5541 245858 20% 26 2337771 136220  1%
c i 356.09 6783 213504 2  56 5542 245858 20% 26 2337771 136219  1%
c i 356.09 6783 213366 2  56 5543 245858 20% 26 2337771 136218  1%
c i 356.09 6783 213229 2  56 5544 245858 20% 26 2337771 136217  1%
c 
c  seconds         reductions   redundant     irredundant
c           MB         restarts         trail         variables
c               level     conflicts         glue            remaining
c 
c i 356.09 6783 213091 2  56 5545 245858 20% 26 2337771 136216  1%
c i 356.09 6783 212954 2  56 5546 245858 20% 26 2337771 136215  1%
c i 356.09 6783 212817 2  56 5547 245858 20% 26 2337771 136214  1%
c i 356.09 6783 212680 2  56 5548 245858 20% 26 2337771 136213  1%
c i 356.09 6783 212407 2  56 5550 245859 20% 26 2337771 136212  1%
c i 356.09 6783 212270 2  56 5551 245859 20% 26 2337771 136211  1%
c # 357.07 6783 132047 2  56 6503 246357 16% 20 2337771 136209  1%
c i 357.07 6783 132047 2  56 6503 246357 16% 20 2337771 136206  1%
c i 357.08 6783 131994 2  56 6504 246357 16% 20 2337771 136200  1%
c i 357.08 6783 131941 2  56 6505 246357 16% 20 2337771 136196  1%
c i 357.09 6783 131888 2  56 6506 246357 16% 20 2337771 136192  1%
c i 357.10 6783 131835 2  56 6507 246357 16% 20 2337771 136182  1%
c i 357.11 6783 131782 2  56 6508 246357 16% 20 2337771 136178  1%
c i 357.12 6783 131729 2  56 6509 246357 16% 20 2337771 136172  1%
c i 357.12 6783 131676 2  56 6510 246357 16% 20 2337771 136168  1%
c i 357.13 6783 131623 2  56 6511 246357 16% 20 2337771 136164  1%
c i 357.14 6783 131571 2  56 6512 246357 16% 20 2337771 136158  1%
c i 357.15 6783 131518 2  56 6513 246357 16% 20 2337771 136154  1%
c i 357.15 6783 131465 2  56 6514 246357 16% 20 2337771 136150  1%
c i 357.16 6783 131412 2  56 6515 246357 16% 20 2337771 136144  1%
c 
c  seconds         reductions   redundant     irredundant
c           MB         restarts         trail         variables
c               level     conflicts         glue            remaining
c 
c i 357.17 6783 131360 2  56 6516 246357 16% 20 2337771 136136  1%
c i 357.18 6783 131307 2  56 6517 246357 16% 20 2337771 136134  1%
c i 357.19 6783 131255 2  56 6518 246357 16% 20 2337771 136132  1%
c i 357.19 6783 131202 2  56 6519 246357 16% 20 2337771 136130  1%
c i 357.20 6783 131150 2  56 6520 246357 16% 20 2337771 136128  1%
c i 357.21 6783 131097 2  56 6521 246357 16% 20 2337771 136126  1%
c i 357.22 6783 131045 2  56 6522 246357 16% 20 2337771 136124  1%
c i 357.23 6783 130992 2  56 6523 246357 16% 20 2337771 136122  1%
c i 357.23 6783 130940 2  56 6524 246357 16% 20 2337771 136120  1%
c i 357.24 6783 130888 2  56 6525 246357 16% 20 2337771 136118  1%
c i 357.25 6783 130836 2  56 6526 246357 16% 20 2337771 136116  1%
c i 357.26 6783 130784 2  56 6527 246357 16% 20 2337771 136114  1%
c i 357.26 6783 130731 2  56 6528 246357 16% 20 2337771 136111  1%
c i 357.27 6783 130679 2  56 6529 246357 16% 20 2337771 136107  1%
c i 357.28 6783 130472 2  56 6533 246358 16% 20 2337771 136094  1%
c i 357.33 6783 129750 2  56 6550 246369 16% 20 2337771 136076  1%
c i 357.33 6783 129494 2  56 6555 246373 16% 20 2337771 136050  1%
c i 357.34 6783 129391 2  56 6557 246374 16% 20 2337771 136012  1%
c i 357.34 6783 129289 2  56 6559 246375 16% 20 2337771 135969  1%
c i 357.34 6783 129137 2  56 6562 246374 16% 20 2337771 135918  1%
c 
c  seconds         reductions   redundant     irredundant
c           MB         restarts         trail         variables
c               level     conflicts         glue            remaining
c 
c i 357.35 6783 129035 2  56 6564 246375 16% 20 2337771 135859  1%
c i 357.35 6783 128781 2  56 6569 246379 16% 20 2337771 135792  1%
c i 357.35 6783 128680 2  56 6571 246379 16% 20 2337771 135717  1%
c i 357.35 6783 128630 2  56 6572 246379 16% 20 2337771 135634  1%
c i 357.35 6783 128529 2  56 6574 246380 16% 20 2337771 135543  1%
c i 357.35 6783 128428 2  56 6576 246380 16% 20 2337771 135444  1%
c i 357.35 6783 128328 2  56 6578 246379 16% 20 2337771 135337  1%
c i 357.35 6783 128177 2  56 6581 246378 16% 20 2337771 135224  1%
c i 357.40 6783 127185 2  56 6601 246396 16% 20 2337771 135223  1%
c - 358.68 6579 119626 3  56 6892 7873 15% 19 2310749 135221  1%
c i 362.62 5190 106054 3  57 7249 8122 18% 18 2310749 135098  1%
c } 362.94 5190 98148 3  57 7501 8317 19% 17 2310749 135098  1%
c [ 362.94 5190 565 3  57 7501 8317 1764% 36 2310749 135098  1%
c i 363.27 5190 506 3  57 7819 8519 1052% 33 2310749 135080  1%
c i 363.27 5190 506 3  57 7821 8520 1049% 32 2310749 135079  1%
c i 363.27 5190 506 3  57 7822 8520 1048% 32 2310749 135078  1%
c i 363.27 5190 506 3  57 7823 8520 1047% 32 2310749 135077  1%
c i 363.27 5190 505 3  57 7824 8520 1045% 32 2310749 135076  1%
c i 363.27 5190 505 3  57 7825 8520 1044% 32 2310749 135075  1%
c i 363.34 5190 490 3  57 7901 8582 953% 31 2310749 135074  1%
c 
c  seconds      reductions  redundant     irredundant
c           MB      restarts       trail          variables
c              level   conflicts        glue            remaining
c 
c i 363.34 5190 489 3  57 7902 8582 952% 31 2310749 135073  1%
c i 363.34 5190 487 3  57 7911 8587 942% 31 2310749 135072  1%
c i 363.39 5190 480 3  57 7945 8610 907% 31 2310749 135071  1%
c i 363.42 5190 476 3  57 7966 8622 887% 30 2310749 135070  1%
c i 363.42 5190 475 3  57 7967 8622 886% 30 2310749 135069  1%
c i 363.42 5190 475 3  57 7969 8623 884% 30 2310749 135068  1%
c i 363.42 5190 474 3  57 7972 8625 882% 30 2310749 135067  1%
c i 363.42 5190 473 3  57 7976 8626 878% 30 2310749 135066  1%
c i 363.42 5190 473 3  57 7980 8629 874% 30 2310749 135065  1%
c i 363.42 5190 471 3  57 7989 8635 866% 30 2310749 135064  1%
c i 363.42 5190 470 3  57 7990 8635 865% 30 2310749 135062  1%
c i 363.42 5190 468 3  57 7999 8640 857% 30 2310749 135061  1%
c i 363.45 5190 465 3  57 8017 8654 841% 30 2310749 135059  1%
c i 363.48 5190 461 3  57 8034 8664 827% 29 2310749 135057  1%
c i 363.48 5190 461 3  57 8035 8664 826% 29 2310749 135055  1%
c - 364.35 5190 312 4  58 9728 9375 327% 21 2309679 135055  1%
c i 364.53 5190 310 4  58 9789 9407 320% 21 2309679 135054  1%
c i 364.60 5190 318 4  58 10007 9548 301% 20 2309679 135053  1%
c i 364.60 5190 317 4  58 10015 9555 300% 20 2309679 135052  1%
c i 364.63 5190 316 4  58 10058 9586 296% 20 2309679 135050  1%
c 
c  seconds      reductions   redundant     irredundant
c           MB      restarts        trail          variables
c              level    conflicts        glue            remaining
c 
c i 364.64 5190 315 4  58 10063 9587 296% 20 2309679 135049  1%
c I 364.72 5190 310 4  58 10505 9813 263% 19 2309679 135049  1%
c i 364.83 5190 307 4  58 10598 9888 256% 19 2309679 135048  1%
c i 365.12 5190 301 4  58 10894 10034 239% 18 2309679 134917  1%
c - 366.88 5190 283 5  60 13273 10892 161% 15 2308628 134917  1%
c i 367.59 5190 268 5  60 13783 11096 150% 15 2308628 131619  1%
c i 368.80 5190 248 5  61 14415 11334 139% 14 2308626 131446  1%
c ] 368.91 5190 246 5  61 14453 11344 138% 14 2308626 131445  1%
c 0 368.91 5190 246 5  61 14453 11344 138% 14 2308626 131445  1%
c 
c --- [ result ] -------------------------------------------------------------
c 
s UNSATISFIABLE
c 
c --- [ run-time profiling ] -------------------------------------------------
c 
c process time taken by individual solving procedures
c (percentage relative to process time for solving)
c 
c       182.28   52.24% simplify
c       166.65   47.76% search
c       103.25   29.59% stable
c        90.86   26.04% elim
c        63.88   18.31% vivify
c        63.04   18.07% unstable
c        19.97    5.72% parse
c        13.53    3.88% subsume
c         3.17    0.91% probe
c         1.92    0.55% ternary
c         0.36    0.10% lucky
c   =================================
c       348.94   94.59% solve
c 
c last line shows process time for solving
c (percentage relative to total process time)
c 
c --- [ statistics ] ---------------------------------------------------------
c 
c chronological:              7869        54.45 %  of conflicts
c conflicts:                 14453        41.42    per second
c decisions:              29294981     83955.12    per second
c eliminated:              8308133        83.46 %  of all variables
c fixed:                   1414374        14.21 %  of all variables
c learned:                    8780        60.75 %  per conflict
c learned_lits:             878318       100.00 %  learned literals
c minimized:                     0         0.00 %  learned literals
c shrunken:                 138810        15.80 %  learned literals
c minishrunken:              75825         8.63 %  learned literals
c otfs:                       2997        20.74 %  of conflict
c propagations:         1022890902         2.93 M  per second
c reduced:                     636         4.40 %  per conflict
c rephased:                      4      3613.25    interval
c restarts:                     61       236.93    interval
c stabilizing:                   2        61.90 %  of conflicts
c substituted:               87387         0.88 %  of all variables
c subsumed:                 270606         0.48 %  of all clauses
c strengthened:              61901         0.11 %  of all clauses
c ternary:                  130285         1.08 %  of resolved
c trail reuses:                  0         0.00 %  of incremental calls
c vivified:                    460         0.00 %  of all clauses
c weakened:               36662239         3.26    average size
c 
c seconds are measured in process time for solving
c 
c --- [ resources ] ----------------------------------------------------------
c 
c total process time since initialization:       368.91    seconds
c total real time since initialization:          368.95    seconds
c maximum resident set size of process:         8745.14    MB
c 
c --- [ shutting down ] ------------------------------------------------------
c 
c exit 20
